2799533
104,198,11,197,121,54,56,18,92,53,202,24,219,222,43,7,163,147,8,135,127,174,79,221,191,189,39,145,105,100,175,216,99,106,128,77,41,141,190,66,144,96,172,209,69,177,45,19,27,62,37,153,224,113,136,159,154,52,98,25,214,166,117,94,75,74,28,130,35,34,65,156,138,17,123,148,51,47,119,143,160,15,137,64,125,230,168,93,194,13,97,110,227,33,203,204,68,3,101,118,229,167,139,95,188,187,103,186,171,150,142,217,226,122,16,58,57,196,192,164,220,173,4,21,170,129,12,88,38,76,131,23,32,140,67,207,162,71,42,182,14,111,73,152,120,60,49,126,149,89,151,87,169,205,40,161,165,132,158,29,181,46,157,183,48,213,83,63,1,5,208,206,180,225,193,199,84,201,31,80,10,210,44,81,78,55,50,22,184,20,179,102,26,91,9,107,116,108,155,112,133,72,70,176,146,228,109,90,178,215,36,185,30,59,200,195,85,114,218,124,134,211,223,61,86,212,6,115,2,82